
  12    4
  10   10   10   10

   0   0   0   0   0   4 2 3 4 11 
  10  10  10  10  10   3 9 8 5 
   7  10  10  10  10   3 10 6 5 
  10  10  10  10  10   3 9 8 7 
   7  10  10  10  10   1 7 
   5  10  10  10  10   1 7 
   7  10  10  10  10   1 12
   7  10  10  10  10   1 12
   1  10  10  10  10   1 12
   4  10  10  10  10   1 12
   8  10  10  10  10   1 12
   0   0   0   0   0   0 
